param n := 2;

param m := 2;

param K := 20;

param a :=
1 	 0.417022
2 	 0.720324
;
 param A :=
[1, *, *]:  1	2	:=
1	-0.999771	-0.706488	
2	-0.395335	-0.815323	

[2, *, *]:  1	2	:=
1	-0.627480	-0.206465	
2	-0.308879	0.077633	
;